max_width = 30;
n_blocks = 28;
width = [13, 11, 11, 11, 11, 8, 8, 7, 5, 5, 5, 5, 5, 5, 5, 5, 4, 4, 4, 4, 3, 3, 3, 3, 3, 3, 2, 2];
height = [21, 17, 14, 7, 4, 14, 4, 6, 21, 18, 18, 14, 14, 7, 4, 3, 18, 7, 5, 3, 21, 18, 17, 7, 5, 4, 12, 6];
